4173534169899877921507,8,1,2,012,3,1,2,012,10,1,2,07,7,1,2,01,7,1,2,015,12,1,2,06,8,1,2,08,13,1,2,014,7,1,2,012,1,1,2,04,13,1,2,015,7,1,2,015,2,1,2,04,2,1,2,012,6,1,2,05,6,1,2,07,2,1,2,05,14,1,2,011,15,1,2,05,4,1,2,011,9,1,2,02,6,1,2,03,8,1,2,014,7,1,2,014,4,1,2,014,7,1,2,08,1,1,2,011,1,1,2,01,8,1,2,08,2,1,2,04,5,1,2,08,1,1,2,011,12,1,2,012,15,1,2,011,13,1,2,05,13,1,2,012,4,1,2,011,3,1,2,08,15,1,2,02,7,1,2,011,12,1,2,07,7,1,2,03,13,1,2,04,13,1,2,05,1,1,2,01,8,1,2,01,9,1,2,013,10,1,2,012,6,1,2,07,2,1,2,0